<?xml version = "1.0" standalone="yes"?>
<!-- This file has been generated by DOcplex version 2.23.222  -->
<CPLEXSolution version="1.0">
 <header
   problemName="CVRP"
   objectiveValue="11131.3"
  />
 <variables>
  <variable name="x_0_1" index="0" value="1.00000"/>
  <variable name="x_0_9" index="8" value="1.00000"/>
  <variable name="x_0_11" index="10" value="1.00000"/>
  <variable name="x_0_12" index="11" value="1.00000"/>
  <variable name="x_0_16" index="15" value="1.00000"/>
  <variable name="x_0_17" index="16" value="1.00000"/>
  <variable name="x_0_18" index="17" value="1.00000"/>
  <variable name="x_0_20" index="19" value="1.00000"/>
  <variable name="x_0_22" index="21" value="1.00000"/>
  <variable name="x_0_23" index="22" value="1.00000"/>
  <variable name="x_0_25" index="24" value="1.00000"/>
  <variable name="x_1_10" index="34" value="1.00000"/>
  <variable name="x_2_0" index="50" value="1.00000"/>
  <variable name="x_3_0" index="75" value="1.00000"/>
  <variable name="x_4_15" index="114" value="1.00000"/>
  <variable name="x_5_0" index="125" value="1.00000"/>
  <variable name="x_6_7" index="156" value="1.00000"/>
  <variable name="x_7_0" index="175" value="1.00000"/>
  <variable name="x_8_5" index="205" value="1.00000"/>
  <variable name="x_9_14" index="238" value="1.00000"/>
  <variable name="x_10_0" index="250" value="1.00000"/>
  <variable name="x_11_0" index="275" value="1.00000"/>
  <variable name="x_12_21" index="320" value="1.00000"/>
  <variable name="x_13_0" index="325" value="1.00000"/>
  <variable name="x_14_6" index="356" value="1.00000"/>
  <variable name="x_15_0" index="375" value="1.00000"/>
  <variable name="x_16_4" index="404" value="1.00000"/>
  <variable name="x_17_3" index="428" value="1.00000"/>
  <variable name="x_18_2" index="452" value="1.00000"/>
  <variable name="x_19_0" index="475" value="1.00000"/>
  <variable name="x_20_24" index="523" value="1.00000"/>
  <variable name="x_21_13" index="538" value="1.00000"/>
  <variable name="x_22_0" index="550" value="1.00000"/>
  <variable name="x_23_19" index="594" value="1.00000"/>
  <variable name="x_24_8" index="608" value="1.00000"/>
  <variable name="x_25_0" index="625" value="1.00000"/>
  <variable name="u_1" index="650" value="31.00000"/>
  <variable name="u_2" index="651" value="75.00000"/>
  <variable name="u_3" index="652" value="67.00000"/>
  <variable name="u_4" index="653" value="63.00000"/>
  <variable name="u_5" index="654" value="75.00000"/>
  <variable name="u_6" index="655" value="41.00000"/>
  <variable name="u_7" index="656" value="75.00000"/>
  <variable name="u_8" index="657" value="66.00000"/>
  <variable name="u_9" index="658" value="14.00000"/>
  <variable name="u_10" index="659" value="66.00000"/>
  <variable name="u_11" index="660" value="75.00000"/>
  <variable name="u_12" index="661" value="30.00000"/>
  <variable name="u_13" index="662" value="75.00000"/>
  <variable name="u_14" index="663" value="32.00000"/>
  <variable name="u_15" index="664" value="70.00000"/>
  <variable name="u_16" index="665" value="25.00000"/>
  <variable name="u_17" index="666" value="32.00000"/>
  <variable name="u_18" index="667" value="56.00000"/>
  <variable name="u_19" index="668" value="75.00000"/>
  <variable name="u_20" index="669" value="3.00000"/>
  <variable name="u_21" index="670" value="62.00000"/>
  <variable name="u_22" index="671" value="69.00000"/>
  <variable name="u_23" index="672" value="56.00000"/>
  <variable name="u_24" index="673" value="18.00000"/>
  <variable name="u_25" index="674" value="75.00000"/>
 </variables>
</CPLEXSolution>
